NAME : a280
COMMENT : Tour length 3400
TYPE : TOUR
DIMENSION : 280
TOUR_SECTION
1
2
280
3
279
15
131
130
21
20
19
132
133
18
17
16
271
272
273
274
6
5
4
277
276
275
9
7
8
10
11
12
13
14
24
23
25
22
26
27
28
29
124
123
122
121
120
119
157
158
159
160
175
161
162
172
171
170
169
168
167
166
165
164
163
174
173
106
107
109
89
90
91
92
97
96
95
94
93
98
99
100
101
102
103
105
104
108
110
111
112
88
87
113
114
115
116
86
85
84
83
82
81
80
79
78
77
76
75
74
73
72
71
70
67
66
65
64
58
57
56
45
44
59
61
60
43
42
41
40
39
38
37
36
35
34
33
32
31
30
125
126
127
128
129
154
155
153
156
152
151
150
149
147
146
145
144
143
142
141
148
139
140
264
269
270
134
135
136
268
267
137
138
266
265
263
261
262
257
256
255
252
209
208
253
254
258
259
260
278
249
229
228
227
226
234
233
232
237
236
235
224
225
223
222
219
218
217
220
221
216
213
212
207
210
211
214
215
205
204
203
202
200
199
198
197
194
195
196
201
193
192
191
190
189
188
187
185
184
183
182
181
176
177
178
179
180
186
117
118
62
63
68
69
55
54
53
52
51
50
49
48
47
46
206
230
251
250
247
244
241
240
239
238
231
246
245
243
242
248
1
-1
EOF